NAME : amz2855.122016_122016.tour
COMMENT : Cost = 122016_122016
COMMENT : Found by LKH-AMZ [Keld Helsgaun] Sun May 11 15:23:00 2025
COMMENT : TW viol.: 0 #: 0
TYPE : TOUR
DIMENSION : 119
TOUR_SECTION
63
117
109
105
78
51
102
96
53
111
44
18
20
41
84
65
17
3
97
79
104
113
12
119
91
34
19
70
50
69
90
1
27
60
40
37
115
45
9
48
85
108
94
8
4
71
10
55
118
95
106
22
107
101
114
15
58
76
16
83
66
93
23
110
59
57
39
67
103
112
72
56
13
86
100
99
43
26
74
24
116
33
89
75
31
92
38
64
32
77
82
80
47
7
11
87
68
29
46
25
42
73
81
98
28
36
5
54
14
88
49
52
21
2
62
61
30
6
35
-1
EOF
